c Reduced graph for p19 generated by Cyril Grelier
p edge 36 156
e 1 2
e 1 6
e 1 8
e 1 10
e 1 11
e 1 12
e 1 13
e 1 14
e 1 16
e 1 19
e 1 22
e 1 35
e 2 4
e 2 9
e 2 10
e 2 11
e 2 12
e 2 13
e 2 14
e 2 17
e 2 20
e 2 23
e 2 36
e 3 4
e 3 5
e 3 7
e 3 15
e 3 18
e 3 21
e 3 24
e 3 25
e 3 26
e 3 27
e 3 28
e 3 34
e 4 9
e 4 17
e 4 20
e 4 23
e 4 24
e 4 25
e 4 26
e 4 27
e 4 28
e 4 36
e 5 6
e 5 7
e 5 15
e 5 18
e 5 21
e 5 29
e 5 30
e 5 31
e 5 32
e 5 33
e 5 34
e 6 8
e 6 16
e 6 19
e 6 22
e 6 29
e 6 30
e 6 31
e 6 32
e 6 33
e 6 35
e 7 8
e 7 9
e 7 15
e 7 18
e 7 21
e 7 34
e 8 9
e 8 16
e 8 19
e 8 22
e 8 35
e 9 17
e 9 20
e 9 23
e 9 36
e 10 11
e 10 12
e 10 13
e 10 14
e 10 24
e 10 29
e 11 12
e 11 13
e 11 14
e 11 25
e 11 30
e 12 13
e 12 14
e 12 26
e 12 31
e 13 14
e 13 27
e 13 32
e 14 28
e 14 33
e 15 16
e 15 17
e 15 18
e 15 21
e 15 34
e 16 17
e 16 19
e 16 22
e 16 35
e 17 20
e 17 23
e 17 36
e 18 19
e 18 20
e 18 21
e 18 34
e 19 20
e 19 22
e 19 35
e 20 23
e 20 36
e 21 22
e 21 23
e 21 34
e 22 23
e 22 35
e 23 36
e 24 25
e 24 26
e 24 27
e 24 28
e 24 29
e 25 26
e 25 27
e 25 28
e 25 30
e 26 27
e 26 28
e 26 31
e 27 28
e 27 32
e 28 33
e 29 30
e 29 31
e 29 32
e 29 33
e 30 31
e 30 32
e 30 33
e 31 32
e 31 33
e 32 33
e 34 35
e 34 36
e 35 36
